40	100	100	100
39	9	43
11	14	47
46	16	21
10	23	19
33	28	26
14	48	40
5	1	30
31	17	46
44	41	29
21	48	30
36	6	7
14	39	14
21	49	42
2	43	37
30	15	40
36	26	23
22	12	22
46	12	20
14	8	17
20	2	32
14	10	45
6	16	4
6	17	2
15	17	38
19	30	6
48	11	10
45	1	22
44	28	3
31	26	49
38	44	18
2	1	27
41	24	26
31	35	25
41	13	24
3	38	31
32	41	23
4	12	13
36	8	9
22	40	36
14	12	39
